HUN,8,6,578
1,13,2,30,0,30,5,5,3,26,4,7
0,22,1,7,2,3,4,10,5,1,3,5
1,4,2,16,0,18,4,25,3,15,5,4
2,20,0,26,1,30,5,15,3,5,4,6
2,1,0,22,1,24,4,28,3,25,5,8
2,22,1,22,0,20,5,6,4,3,3,2
1,21,0,5,2,5,3,15,4,23,5,3
1,12,0,7,2,25,4,30,3,9,5,21
